1816.48
0 3 9 1 10 11 7 8 17 5 14 2 4 12 13 0
0 24 29 35 20 19 46 16 91 15 22 23 25 21 26 28 27 18 0
0 33 34 30 32 31 36 44 38 43 42 37 41 39 40 0
0 49 64 57 56 55 54 50 51 60 45 47 48 52 53 0
0 65 66 63 62 61 59 58 67 68 69 0
0 73 74 75 72 80 76 77 79 78 81 71 70 83 84 82 0
0 90 88 86 85 92 95 87 94 6 89 0
0 97 100 98 93 96 99 0
